15075
1 1 1 0 0 1 1 0 0 1 0 0 0 0 1 0 0 1 0 1 1 0 1 0 1 0 0 0 1 0 
20 0 20 2 20 5 2 9 14 17 22 20 28 20 17 14 14 17 5 0 2 0 5 17 5 20 19 24 5 24 5 5 6 5 20 20 24 24 0 14 0 14 24 28 24 14 0 20 0 28 5 14 14 5 20 20 17 0 0 14 0 5 20 0 0 0 9 0 5 9 20 6 5 17 24 20 9 20 14 24 20 0 20 17 17 17 17 0 20 5 2 24 17 0 17 5 2 2 5 20 28 17 17 0 2 5 17 0 14 28 14 1 2 0 0 0 24 24 24 24 5 28 5 20 20 0 5 9 0 5 0 0 24 5 28 14 17 5 20 17 0 28 20 14 20 0 0 5 2 5 

Total Run Time: 234299 ms.
